400 760
1 2 2
1 21 5
2 3 2
2 22 2
3 4 2
3 23 3
4 5 4
4 24 2
5 6 4
5 25 5
6 7 1
6 26 2
7 8 5
7 27 3
8 9 4
8 28 2
9 10 5
9 29 4
10 11 3
10 30 4
11 12 3
11 31 4
12 13 1
12 32 1
13 14 3
13 33 4
14 15 5
14 34 3
15 16 5
15 35 1
16 17 5
16 36 4
17 18 1
17 37 3
18 19 1
18 38 3
19 20 4
19 39 3
20 40 1
21 22 1
21 41 2
22 23 5
22 42 4
23 24 4
23 43 4
24 25 4
24 44 5
25 26 5
25 45 4
26 27 4
26 46 3
27 28 3
27 47 3
28 29 2
28 48 3
29 30 1
29 49 2
30 31 2
30 50 4
31 32 4
31 51 4
32 33 4
32 52 2
33 34 1
33 53 5
34 35 1
34 54 2
35 36 1
35 55 4
36 37 1
36 56 5
37 38 4
37 57 4
38 39 3
38 58 2
39 40 4
39 59 3
40 60 5
41 42 4
41 61 3
42 43 5
42 62 2
43 44 4
43 63 2
44 45 2
44 64 2
45 46 3
45 65 5
46 47 5
46 66 2
47 48 3
47 67 4
48 49 3
48 68 1
49 50 5
49 69 1
50 51 4
50 70 1
51 52 4
51 71 3
52 53 1
52 72 3
53 54 1
53 73 3
54 55 4
54 74 5
55 56 1
55 75 4
56 57 1
56 76 3
57 58 4
57 77 4
58 59 2
58 78 5
59 60 1
59 79 3
60 80 4
61 62 5
61 81 2
62 63 2
62 82 5
63 64 2
63 83 3
64 65 2
64 84 3
65 66 3
65 85 2
66 67 3
66 86 1
67 68 5
67 87 4
68 69 4
68 88 5
69 70 1
69 89 2
70 71 5
70 90 2
71 72 1
71 91 3
72 73 1
72 92 3
73 74 4
73 93 1
74 75 1
74 94 1
75 76 5
75 95 1
76 77 5
76 96 4
77 78 5
77 97 1
78 79 5
78 98 4
79 80 5
79 99 4
80 100 5
81 82 4
81 101 2
82 83 2
82 102 1
83 84 5
83 103 3
84 85 4
84 104 4
85 86 5
85 105 5
86 87 3
86 106 3
87 88 3
87 107 5
88 89 5
88 108 4
89 90 4
89 109 1
90 91 1
90 110 2
91 92 1
91 111 4
92 93 3
92 112 5
93 94 1
93 113 1
94 95 4
94 114 2
95 96 5
95 115 2
96 97 4
96 116 4
97 98 2
97 117 2
98 99 1
98 118 3
99 100 4
99 119 4
100 120 3
101 102 2
101 121 3
102 103 5
102 122 1
103 104 2
103 123 2
104 105 2
104 124 5
105 106 1
105 125 5
106 107 2
106 126 5
107 108 4
107 127 5
108 109 4
108 128 4
109 110 4
109 129 4
110 111 4
110 130 2
111 112 3
111 131 5
112 113 5
112 132 2
113 114 1
113 133 5
114 115 3
114 134 4
115 116 5
115 135 4
116 117 5
116 136 2
117 118 1
117 137 2
118 119 4
118 138 1
119 120 3
119 139 3
120 140 3
121 122 5
121 141 2
122 123 5
122 142 5
123 124 4
123 143 1
124 125 3
124 144 1
125 126 1
125 145 1
126 127 1
126 146 2
127 128 5
127 147 5
128 129 5
128 148 3
129 130 5
129 149 4
130 131 1
130 150 4
131 132 5
131 151 5
132 133 3
132 152 4
133 134 1
133 153 2
134 135 2
134 154 4
135 136 4
135 155 2
136 137 4
136 156 3
137 138 4
137 157 3
138 139 5
138 158 5
139 140 2
139 159 5
140 160 4
141 142 5
141 161 4
142 143 3
142 162 5
143 144 1
143 163 2
144 145 3
144 164 1
145 146 2
145 165 2
146 147 1
146 166 5
147 148 3
147 167 5
148 149 2
148 168 2
149 150 4
149 169 1
150 151 4
150 170 2
151 152 5
151 171 5
152 153 1
152 172 1
153 154 3
153 173 2
154 155 1
154 174 1
155 156 5
155 175 2
156 157 2
156 176 3
157 158 5
157 177 1
158 159 1
158 178 4
159 160 1
159 179 5
160 180 2
161 162 1
161 181 3
162 163 2
162 182 1
163 164 1
163 183 4
164 165 3
164 184 1
165 166 4
165 185 5
166 167 4
166 186 2
167 168 4
167 187 2
168 169 2
168 188 1
169 170 1
169 189 5
170 171 4
170 190 1
171 172 5
171 191 4
172 173 1
172 192 2
173 174 5
173 193 2
174 175 5
174 194 1
175 176 3
175 195 1
176 177 5
176 196 3
177 178 1
177 197 1
178 179 5
178 198 2
179 180 4
179 199 5
180 200 4
181 182 1
181 201 4
182 183 3
182 202 1
183 184 4
183 203 4
184 185 5
184 204 1
185 186 1
185 205 4
186 187 3
186 206 5
187 188 4
187 207 1
188 189 1
188 208 2
189 190 5
189 209 2
190 191 3
190 210 1
191 192 1
191 211 3
192 193 1
192 212 2
193 194 1
193 213 5
194 195 2
194 214 5
195 196 2
195 215 3
196 197 3
196 216 2
197 198 5
197 217 1
198 199 1
198 218 1
199 200 4
199 219 4
200 220 5
201 202 1
201 221 3
202 203 2
202 222 2
203 204 1
203 223 5
204 205 2
204 224 3
205 206 1
205 225 3
206 207 3
206 226 4
207 208 2
207 227 2
208 209 1
208 228 5
209 210 1
209 229 3
210 211 4
210 230 1
211 212 5
211 231 1
212 213 2
212 232 4
213 214 2
213 233 1
214 215 3
214 234 5
215 216 5
215 235 5
216 217 1
216 236 4
217 218 1
217 237 1
218 219 3
218 238 3
219 220 1
219 239 1
220 240 2
221 222 4
221 241 1
222 223 1
222 242 2
223 224 4
223 243 3
224 225 2
224 244 1
225 226 2
225 245 4
226 227 4
226 246 2
227 228 1
227 247 3
228 229 2
228 248 4
229 230 2
229 249 3
230 231 3
230 250 1
231 232 4
231 251 5
232 233 3
232 252 1
233 234 4
233 253 5
234 235 3
234 254 1
235 236 3
235 255 3
236 237 5
236 256 1
237 238 4
237 257 4
238 239 1
238 258 2
239 240 3
239 259 4
240 260 1
241 242 1
241 261 4
242 243 2
242 262 2
243 244 1
243 263 4
244 245 4
244 264 3
245 246 1
245 265 1
246 247 3
246 266 3
247 248 5
247 267 2
248 249 5
248 268 5
249 250 5
249 269 3
250 251 5
250 270 4
251 252 4
251 271 5
252 253 3
252 272 4
253 254 3
253 273 2
254 255 4
254 274 2
255 256 2
255 275 1
256 257 1
256 276 3
257 258 5
257 277 5
258 259 5
258 278 1
259 260 3
259 279 2
260 280 3
261 262 5
261 281 3
262 263 5
262 282 4
263 264 2
263 283 5
264 265 1
264 284 5
265 266 1
265 285 5
266 267 3
266 286 4
267 268 5
267 287 3
268 269 5
268 288 3
269 270 2
269 289 5
270 271 5
270 290 5
271 272 3
271 291 5
272 273 3
272 292 2
273 274 2
273 293 1
274 275 1
274 294 5
275 276 3
275 295 3
276 277 4
276 296 4
277 278 2
277 297 2
278 279 5
278 298 5
279 280 4
279 299 3
280 300 3
281 282 5
281 301 4
282 283 4
282 302 1
283 284 2
283 303 5
284 285 5
284 304 3
285 286 4
285 305 4
286 287 2
286 306 1
287 288 2
287 307 3
288 289 4
288 308 2
289 290 1
289 309 5
290 291 2
290 310 5
291 292 2
291 311 3
292 293 2
292 312 1
293 294 3
293 313 5
294 295 3
294 314 2
295 296 5
295 315 2
296 297 3
296 316 4
297 298 3
297 317 2
298 299 5
298 318 2
299 300 3
299 319 3
300 320 1
301 302 5
301 321 1
302 303 2
302 322 4
303 304 2
303 323 5
304 305 3
304 324 4
305 306 4
305 325 1
306 307 3
306 326 5
307 308 3
307 327 1
308 309 4
308 328 3
309 310 2
309 329 1
310 311 1
310 330 4
311 312 3
311 331 4
312 313 3
312 332 1
313 314 1
313 333 4
314 315 5
314 334 3
315 316 3
315 335 5
316 317 2
316 336 4
317 318 5
317 337 1
318 319 1
318 338 4
319 320 3
319 339 1
320 340 4
321 322 4
321 341 3
322 323 2
322 342 1
323 324 3
323 343 5
324 325 2
324 344 3
325 326 4
325 345 2
326 327 2
326 346 4
327 328 3
327 347 1
328 329 4
328 348 2
329 330 3
329 349 5
330 331 5
330 350 1
331 332 1
331 351 5
332 333 3
332 352 5
333 334 2
333 353 4
334 335 4
334 354 1
335 336 5
335 355 1
336 337 1
336 356 5
337 338 5
337 357 2
338 339 4
338 358 2
339 340 3
339 359 5
340 360 3
341 342 1
341 361 3
342 343 3
342 362 2
343 344 2
343 363 1
344 345 2
344 364 3
345 346 4
345 365 2
346 347 5
346 366 4
347 348 5
347 367 3
348 349 3
348 368 5
349 350 2
349 369 4
350 351 3
350 370 5
351 352 4
351 371 3
352 353 5
352 372 4
353 354 3
353 373 1
354 355 5
354 374 2
355 356 5
355 375 1
356 357 3
356 376 4
357 358 2
357 377 2
358 359 5
358 378 5
359 360 2
359 379 3
360 380 1
361 362 5
361 381 5
362 363 2
362 382 5
363 364 2
363 383 1
364 365 4
364 384 3
365 366 5
365 385 5
366 367 2
366 386 2
367 368 5
367 387 4
368 369 3
368 388 2
369 370 4
369 389 3
370 371 1
370 390 1
371 372 4
371 391 1
372 373 1
372 392 5
373 374 4
373 393 5
374 375 1
374 394 3
375 376 1
375 395 2
376 377 5
376 396 2
377 378 4
377 397 2
378 379 4
378 398 5
379 380 3
379 399 4
380 400 5
381 382 3
382 383 5
383 384 3
384 385 2
385 386 3
386 387 2
387 388 1
388 389 3
389 390 5
390 391 2
391 392 2
392 393 3
393 394 3
394 395 4
395 396 5
396 397 1
397 398 1
398 399 1
399 400 3
